
Value of objective function: 98.00000000

Actual values of the variables:
v1                              0
v3                              0
v4                              0
v5                              0
v6                              0
v8                              0
v9                              0
v10                             1
v11                             1
v12                             0
v13                             0
v14                             1
v15                             1
v16                             1
v17                             1
v18                             1
v19                             1
v20                             1
v21                             1
v22                             1
v23                             0
v24                             0
v25                             1
v26                             1
v27                             0
v28                             1
v30                             1
v31                             1
v32                             1
v33                             1
v34                             0
v35                             0
v36                             0
v37                             1
v38                             0
v39                             1
v40                             1
v41                             0
v42                             0
v43                             0
v44                             1
v45                             1
v46                             1
v48                             1
v49                             1
v50                             1
v29                             0
v7                              0
v47                             0
v2                              0
